34

C      -2.182776100000000     -0.532282399999999     -3.209118400000000
H      -2.471617100000000      0.108971200000000     -3.817209870000000
C      -2.521366720000000     -1.865084000000000     -3.413335020000000
C      -1.433696090000000     -0.142500800000000     -2.131511030000000
H      -3.029626000000000     -2.116556000000000     -4.150885240000000
C      -2.093833170000000     -2.801817199999999     -2.509858790000000
C      -0.960280560000000     -1.098094400000000     -1.201596040000000
C      -1.093630520000000      1.301367600000002     -1.966496700000000
H      -2.336704680000000     -3.690351600000001     -2.637494180000000
C      -1.306029720000000     -2.474903600000000     -1.401254260000000
C      -0.175169420000000     -0.697834800000000     -0.092079820000000
O      -1.475089170000000      2.135416400000000     -2.775158070000000
C      -0.259319040000000      1.678575600000001     -0.792251110000000
C      -0.805409470000000     -3.430497200000000     -0.464045820000000
C       0.175169420000000      0.697834800000002      0.092079819999999
C       0.259319040000000     -1.678575599999999      0.792251100000000
C       0.064315490000000      3.034428800000000     -0.588946160000000
I      -1.202675070000000     -5.470563800000000     -0.731988960000000
C      -0.064315480000000     -3.034428800000000      0.588946160000000
C       0.960280560000000      1.098094400000000      1.201596030000000
C       1.093630520000000     -1.301367600000000      1.966496700000000
H      -0.241006440000000      3.671491200000001     -1.194302590000000
C       0.805409480000000      3.430497200000000      0.464045810000000
H       0.241006450000000     -3.671491199999999      1.194302580000000
C       1.433696100000000      0.142500800000000      2.131511020000000
C       1.306029730000001      2.474903600000000      1.401254250000000
O       1.475089180000000     -2.135416400000000      2.775158060000000
I       1.202675080000001      5.470563800000000      0.731988970000000
C       2.182776110000000      0.532282399999999      3.209118390000000
C       2.093833180000000      2.801817200000001      2.509858790000000
H       2.471617100000000     -0.108971200000000      3.817209859999999
C       2.521366720000001      1.865083999999999      3.413335019999999
H       2.336704690000000      3.690351599999999      2.637494180000000
H       3.029626000000000      2.116556000000002      4.150885240000000
34

C       2.182776105000000     -0.532282400000000      3.209118385000000
H       2.471617095000000      0.108971200000000      3.817209855000001
C       2.521366715000001     -1.865084000000000      3.413335015000000
C       1.433696095000000     -0.142500800000000      2.131511015000000
H       3.029626005000000     -2.116556000000000      4.150885235000001
C       2.093833175000000     -2.801817200000000      2.509858785000000
C       0.960280555000000     -1.098094400000000      1.201596025000000
C       1.093630525000000      1.301367600000000      1.966496685000000
H       2.336704685000000     -3.690351600000000      2.637494175000000
C       1.306029725000000     -2.474903600000000      1.401254245000001
C       0.175169425000000     -0.697834800000000      0.092079815000000
O       1.475089175000000      2.135416400000000      2.775158055000000
C       0.259319045000000      1.678575600000000      0.792251095000001
C       0.805409475000000     -3.430497200000000      0.464045805000000
C      -0.175169425000000      0.697834800000000     -0.092079824999999
C      -0.259319045000000     -1.678575600000000     -0.792251105000000
C      -0.064315484999999      3.034428800000000      0.588946155000000
I       1.202675075000000     -5.470563800000000      0.731988955000000
C       0.064315475000000     -3.034428800000000     -0.588946164999999
C      -0.960280565000000      1.098094400000000     -1.201596045000000
C      -1.093630525000000     -1.301367600000000     -1.966496695000000
H       0.241006445000001      3.671491199999999      1.194302575000000
C      -0.805409484999999      3.430497200000000     -0.464045824999999
H      -0.241006445000000     -3.671491200000000     -1.194302595000000
C      -1.433696095000000      0.142500800000001     -2.131511025000000
C      -1.306029735000000      2.474903600000000     -1.401254264999999
O      -1.475089175000000     -2.135416400000000     -2.775158075000000
I      -1.202675084999999      5.470563800000000     -0.731988974999999
C      -2.182776105000000      0.532282400000000     -3.209118385000000
C      -2.093833175000000      2.801817199999999     -2.509858795000000
H      -2.471617105000000     -0.108971200000000     -3.817209855000000
C      -2.521366725000000      1.865084000000000     -3.413335015000000
H      -2.336704685000001      3.690351600000001     -2.637494185000000
H      -3.029626005000000      2.116556000000000     -4.150885235000001
11

C       0.443393680000000     -0.874702285000000      0.598107140000000
N      -0.565702249999999     -0.747100955000000     -0.354667030000000
N       0.859704800000000      0.389744155000000      0.924792550000000
O       0.834223150000000     -1.939832525000000      1.051409390000000
C      -0.755716820000000      0.557525305000000     -0.717029020000000
H      -0.947443160000000     -1.396309275000000     -0.792579390000000
H       1.555430920000000      0.515275625000000      1.557876710000000
C       0.149910950000000      1.359051635000000      0.101433380000000
O      -1.555430920000000      0.948487035000000     -1.557876710000000
H       0.735568700000000      1.793724125000000     -0.358864280000000
H      -0.240144510000000      1.939832525000000      0.550538380000000
11

C      -0.443393680000000      0.874702285000000     -0.598107140000000
N       0.565702260000000      0.747100954999999      0.354667030000000
N      -0.859704800000000     -0.389744155000001     -0.924792550000000
O      -0.834223150000000      1.939832525000000     -1.051409390000000
C       0.755716820000000     -0.557525305000000      0.717029020000000
H       0.947443160000000      1.396309275000000      0.792579390000000
H      -1.555430920000000     -0.515275625000001     -1.557876710000000
C      -0.149910950000000     -1.359051635000000     -0.101433380000000
O       1.555430920000000     -0.948487035000001      1.557876710000000
H      -0.735568700000000     -1.793724125000001      0.358864280000000
H       0.240144510000000     -1.939832525000000     -0.550538380000000
11

C       0.443393680000000     -0.874702285000000      0.598107140000000
N      -0.565702250000000     -0.747100955000000     -0.354667030000000
N       0.859704800000000      0.389744155000001      0.924792550000000
O       0.834223150000000     -1.939832525000000      1.051409390000000
C      -0.755716820000000      0.557525305000000     -0.717029020000000
H      -0.947443160000000     -1.396309274999999     -0.792579390000000
H       1.555430920000000      0.515275625000000      1.557876710000000
C       0.149910950000000      1.359051635000000      0.101433380000000
O      -1.555430920000000      0.948487035000000     -1.557876710000000
H       0.735568700000000      1.793724125000001     -0.358864280000000
H      -0.240144510000000      1.939832525000000      0.550538380000000
11

C      -0.443393680000000      0.874702285000000     -0.598107140000000
N       0.565702260000000      0.747100955000000      0.354667030000000
N      -0.859704800000000     -0.389744155000000     -0.924792550000000
O      -0.834223150000000      1.939832525000000     -1.051409390000000
C       0.755716820000000     -0.557525305000000      0.717029020000000
H       0.947443160000000      1.396309275000000      0.792579390000000
H      -1.555430920000001     -0.515275625000000     -1.557876710000000
C      -0.149910950000000     -1.359051635000000     -0.101433380000000
O       1.555430920000001     -0.948487035000000      1.557876710000000
H      -0.735568700000001     -1.793724125000000      0.358864280000000
H       0.240144510000000     -1.939832525000000     -0.550538380000000
11

C      -0.443393680000000     -0.874702285000000     -0.598107130000000
N       0.565702250000000     -0.747100955000000      0.354667040000000
N      -0.859704800000000      0.389744155000000     -0.924792550000000
O      -0.834223150000000     -1.939832525000000     -1.051409380000000
C       0.755716820000000      0.557525305000000      0.717029020000000
H       0.947443160000000     -1.396309275000000      0.792579400000000
H      -1.555430920000000      0.515275625000000     -1.557876710000000
C      -0.149910950000000      1.359051635000000     -0.101433370000000
O       1.555430920000000      0.948487035000000      1.557876710000000
H      -0.735568700000000      1.793724125000000      0.358864280000000
H       0.240144510000000      1.939832525000000     -0.550538380000000
11

C       0.443393680000001      0.874702285000000      0.598107130000000
N      -0.565702260000000      0.747100954999999     -0.354667040000000
N       0.859704800000000     -0.389744155000001      0.924792550000000
O       0.834223140000001      1.939832525000000      1.051409380000000
C      -0.755716830000000     -0.557525305000000     -0.717029020000000
H      -0.947443160000000      1.396309275000000     -0.792579400000000
H       1.555430920000000     -0.515275625000001      1.557876710000000
C       0.149910950000001     -1.359051635000000      0.101433370000000
O      -1.555430920000000     -0.948487035000001     -1.557876710000000
H       0.735568690000000     -1.793724125000001     -0.358864280000000
H      -0.240144519999999     -1.939832525000000      0.550538380000000
11

C      -0.443393680000000     -0.874702285000000     -0.598107130000000
N       0.565702250000000     -0.747100955000000      0.354667040000000
N      -0.859704799999999      0.389744155000001     -0.924792550000000
O      -0.834223150000000     -1.939832525000000     -1.051409380000000
C       0.755716820000000      0.557525305000000      0.717029020000000
H       0.947443160000001     -1.396309274999999      0.792579400000000
H      -1.555430920000000      0.515275625000000     -1.557876710000000
C      -0.149910950000000      1.359051635000000     -0.101433370000000
O       1.555430920000000      0.948487035000000      1.557876710000000
H      -0.735568700000000      1.793724125000001      0.358864280000000
H       0.240144510000000      1.939832525000000     -0.550538380000000
11

C       0.443393680000000      0.874702285000000      0.598107130000000
N      -0.565702260000000      0.747100955000000     -0.354667040000000
N       0.859704800000000     -0.389744155000000      0.924792550000000
O       0.834223140000000      1.939832525000000      1.051409380000000
C      -0.755716830000000     -0.557525305000000     -0.717029020000000
H      -0.947443160000000      1.396309275000000     -0.792579400000000
H       1.555430920000000     -0.515275625000000      1.557876710000000
C       0.149910950000000     -1.359051635000000      0.101433370000000
O      -1.555430920000000     -0.948487035000000     -1.557876710000000
H       0.735568690000000     -1.793724125000000     -0.358864280000000
H      -0.240144520000000     -1.939832525000000      0.550538380000000
11

N       0.415458800000000     -0.803192100000000      0.531687245000000
C       0.683030150000000     -0.212542600000000     -0.792188785000000
C      -0.829081140000000     -0.033751400000000      0.596747485000001
H       0.321455960000000     -1.629189200000000      0.534206265000001
C      -0.261870370000000      0.916761000000000     -0.441263055000000
H       1.582558620000000     -0.021892800000000     -0.977206565000000
H       0.319315710000000     -0.788140800000000     -1.454952005000000
H      -1.041371940000000      0.315621200000000      1.454952005000000
H      -1.582558620000000     -0.505358800000000      0.264931565000000
H       0.192635790000000      1.629189200000000     -0.004343135000000
H      -0.859076720000000      1.255187200000000     -1.090128215000000
11

N      -0.415458810000000      0.803192100000000     -0.531687235000000
C      -0.683030160000000      0.212542600000000      0.792188795000000
C       0.829081140000000      0.033751400000000     -0.596747485000000
H      -0.321455970000000      1.629189200000000     -0.534206265000000
C       0.261870360000000     -0.916761000000000      0.441263055000000
H      -1.582558620000000      0.021892800000000      0.977206564999999
H      -0.319315710000000      0.788140800000000      1.454952005000000
H       1.041371940000000     -0.315621200000000     -1.454952005000000
H       1.582558620000000      0.505358800000000     -0.264931565000000
H      -0.192635800000000     -1.629189200000000      0.004343135000000
H       0.859076720000001     -1.255187200000000      1.090128215000000
11

N      -0.415458800000000     -0.803192100000000     -0.531687235000000
C       0.829081140000000     -0.033751400000000     -0.596747485000000
H      -0.321455960000000     -1.629189200000000     -0.534206255000000
C      -0.683030160000000     -0.212542600000000      0.792188785000000
H       1.041371940000000      0.315621200000000     -1.454952005000000
H       1.582558620000000     -0.505358800000000     -0.264931565000000
C       0.261870370000000      0.916761000000000      0.441263054999999
H      -1.582558620000000     -0.021892800000000      0.977206565000000
H      -0.319315720000000     -0.788140800000000      1.454952005000000
H      -0.192635800000000      1.629189200000000      0.004343135000000
H       0.859076720000000      1.255187200000000      1.090128214999999
11

N       0.415458805000000      0.803192100000000      0.531687240000000
C      -0.829081135000000      0.033751399999999      0.596747480000000
C       0.683030155000000      0.212542600000000     -0.792188790000000
H       0.321455965000000      1.629189200000000      0.534206260000000
H      -1.041371935000000     -0.315621200000000      1.454952000000000
H      -1.582558615000000      0.505358799999999      0.264931560000000
C      -0.261870365000000     -0.916761000000001     -0.441263060000000
H       1.582558615000000      0.021892799999999     -0.977206570000000
H       0.319315705000000      0.788140800000000     -1.454952000000000
H       0.192635795000000     -1.629189200000000     -0.004343140000000
H      -0.859076725000000     -1.255187200000000     -1.090128220000000
11

N       0.527301515000000      0.482371360000000      0.845870005000000
C       0.932089755000000      0.072063800000000     -0.506410165000000
C      -0.833644725000000      0.020980600000000      0.560265095000000
H       0.908038215000000      0.064766200000000      1.463638285000000
C      -0.520033435000000      0.055644200000000     -0.920745745000000
H       1.503888035000000      0.703306200000000     -0.907716325000000
H       1.347735775000000     -0.778106600000000     -0.534206255000000
H      -1.503888035000000      0.602964200000000      0.872971205000000
H      -1.023546855000000     -0.864765600000000      0.881657485000000
H      -0.807739255000000      0.864765600000000     -1.307285235000000
H      -0.821524495000000     -0.655871800000000     -1.463638285000000
11

N      -0.527301515000000     -0.482371360000000     -0.845870005000000
C      -0.932089765000000     -0.072063800000000      0.506410165000000
C       0.833644715000000     -0.020980599999999     -0.560265095000000
H      -0.908038215000000     -0.064766200000000     -1.463638285000000
C       0.520033435000000     -0.055644199999999      0.920745745000000
H      -1.503888035000000     -0.703306200000000      0.907716325000000
H      -1.347735785000000      0.778106600000001      0.534206265000000
H       1.503888035000000     -0.602964199999999     -0.872971205000000
H       1.023546855000000      0.864765600000000     -0.881657485000000
H       0.807739245000000     -0.864765600000000      1.307285235000000
H       0.821524495000000      0.655871799999999      1.463638285000000
11

N      -0.527301510000000      0.482371360000000     -0.845870005000000
C       0.833644730000000      0.020980600000001     -0.560265095000000
H      -0.908038210000000      0.064766200000000     -1.463638285000000
C      -0.932089760000000      0.072063800000000      0.506410165000000
H       1.503888040000000      0.602964200000001     -0.872971195000001
H       1.023546860000000     -0.864765600000000     -0.881657475000001
C       0.520033430000000      0.055644200000001      0.920745745000000
H      -1.503888040000000      0.703306200000000      0.907716324999999
H      -1.347735780000000     -0.778106600000000      0.534206254999999
H       0.807739250000000      0.864765600000000      1.307285235000000
H       0.821524490000000     -0.655871800000000      1.463638285000000
11

N       0.527301510000000     -0.482371360000000      0.845870005000000
C      -0.833644720000000     -0.020980600000000      0.560265095000000
H       0.908038220000000     -0.064766200000000      1.463638285000000
C       0.932089750000000     -0.072063800000000     -0.506410165000000
H      -1.503888030000000     -0.602964200000000      0.872971205000000
H      -1.023546850000000      0.864765600000000      0.881657485000000
C      -0.520033440000000     -0.055644200000000     -0.920745745000000
H       1.503888030000000     -0.703306200000000     -0.907716325000000
H       1.347735780000000      0.778106600000000     -0.534206255000000
H      -0.807739260000000     -0.864765600000000     -1.307285235000000
H      -0.821524500000000      0.655871800000000     -1.463638285000000
26

C      -0.820123845000000      0.862153215000000     -1.175492085000001
C      -0.183609184999999      0.256486335000000     -2.260299445000000
C      -0.426107194999999      0.578732175000000      0.105855645000000
N      -2.006427775000000      1.719210675000000     -1.343736095000001
N      -0.470552004999999      0.654440535000000     -3.635059255000000
C       0.821442015000000     -0.661720185000000     -2.039042385000001
H      -0.885704605000000      0.968921415000000      0.825537715000000
C       0.593599045000000     -0.345783375000000      0.328987774999999
O      -1.992203405000001      2.806790385000000     -0.786672845000000
O      -2.944272584999999      1.269813615000000     -1.982449665000000
O      -0.931175465000000      1.775991945000000     -3.825463055000000
O      -0.191805005000000     -0.137100075000000     -4.536451665000000
C       1.228676194999999     -0.984936645000000     -0.744569235000001
H       1.273116715000000     -1.020849585000000     -2.771168035000001
N       0.959307635000001     -0.670941075000000      1.648689004999999
C       2.341756465000000     -1.973027805000000     -0.538483105000001
C       1.075595175000001      0.234162075000000      2.662414554999999
H       1.062467985000001     -1.486747185000000      1.831251655000000
H       2.868057265000000     -2.083678485000000     -1.289870735000000
H       2.033819475000000     -2.806790385000000     -0.224495805000001
H       2.944272584999999     -1.685724285000000      0.162448365000000
O       0.980306215000000      1.436760255000000      2.466896945000000
C       1.318156425000001     -0.345298065000000      4.021662494999999
H       1.637337534999999     -1.239239085000000      3.963706104999999
H       0.446715695000001     -0.360827985000000      4.495541265000000
H       1.867989685000000      0.226397115000000      4.536451665000000
26

C       0.820123840000000     -0.862153215000000      1.175492084999999
C       0.183609190000000     -0.256486335000000      2.260299444999998
C       0.426107200000000     -0.578732175000000     -0.105855645000001
N       2.006427780000000     -1.719210675000000      1.343736095000000
N       0.470552000000000     -0.654440535000000      3.635059254999997
C      -0.821442020000000      0.661720185000000      2.039042384999999
H       0.885704610000000     -0.968921415000000     -0.825537715000002
C      -0.593599040000000      0.345783375000000     -0.328987775000001
O       1.992203410000000     -2.806790385000000      0.786672854999998
O       2.944272580000000     -1.269813615000000      1.982449664999998
O       0.931175470000000     -1.775991945000000      3.825463065000000
O       0.191805010000000      0.137100075000000      4.536451665000000
C      -1.228676190000000      0.984936645000000      0.744569234999999
H      -1.273116720000000      1.020849585000000      2.771168035000000
N      -0.959307630000000      0.670941075000000     -1.648689005000000
C      -2.341756460000000      1.973027805000001      0.538483104999998
C      -1.075595170000000     -0.234162075000000     -2.662414555000001
H      -1.062467990000000      1.486747185000000     -1.831251645000001
H      -2.868057260000000      2.083678485000001      1.289870734999998
H      -2.033819480000000      2.806790385000000      0.224495804999999
H      -2.944272580000000      1.685724285000000     -0.162448365000000
O      -0.980306220000000     -1.436760255000000     -2.466896945000001
C      -1.318156420000000      0.345298065000000     -4.021662495000002
H      -1.637337530000000      1.239239085000000     -3.963706105000001
H      -0.446715690000000      0.360827985000000     -4.495541265000001
H      -1.867989680000000     -0.226397115000000     -4.536451665000000
26

C       0.820123840000001      0.862153215000000      1.175492080000000
N       2.006427770000000      1.719210675000000      1.343736090000000
C       0.183609190000000      0.256486335000000      2.260299440000000
C       0.426107200000000      0.578732175000000     -0.105855650000001
O       1.992203410000000      2.806790385000000      0.786672840000000
O       2.944272580000000      1.269813615000000      1.982449660000000
C      -0.821442019999999     -0.661720185000000      2.039042380000000
N       0.470552000000000      0.654440535000000      3.635059250000000
C      -0.593599049999999     -0.345783375000000     -0.328987780000000
H       0.885704600000000      0.968921415000000     -0.825537720000000
C      -1.228676189999999     -0.984936645000000      0.744569230000000
H      -1.273116719999999     -1.020849585000000      2.771168030000000
O       0.191805000000000     -0.137100075000000      4.536451670000000
O       0.931175470000000      1.775991945000000      3.825463050000000
N      -0.959307640000000     -0.670941075000000     -1.648689010000000
C      -2.341756459999999     -1.973027805000000      0.538483100000000
C      -1.075595170000000      0.234162075000000     -2.662414560000000
H      -1.062467989999999     -1.486747185000000     -1.831251650000000
H      -2.868057270000000     -2.083678485000000      1.289870730000000
H      -2.944272580000000     -1.685724285000000     -0.162448370000000
H      -2.033819479999999     -2.806790385000000      0.224495800000000
C      -1.318156429999999     -0.345298065000000     -4.021662500000000
O      -0.980306219999999      1.436760255000000     -2.466896950000001
H      -1.637337529999999     -1.239239085000000     -3.963706110000000
H      -0.446715700000000     -0.360827985000000     -4.495541269999999
H      -1.867989689999999      0.226397115000000     -4.536451670000000
26

C      -0.820123840000000     -0.862153215000000     -1.175492085000000
N      -2.006427770000000     -1.719210675000000     -1.343736085000000
C      -0.183609190000000     -0.256486335000000     -2.260299444999999
C      -0.426107200000000     -0.578732175000000      0.105855655000001
O      -1.992203410000000     -2.806790385000000     -0.786672845000000
O      -2.944272580000000     -1.269813615000000     -1.982449664999999
C       0.821442020000000      0.661720185000000     -2.039042385000000
N      -0.470552000000000     -0.654440535000000     -3.635059255000000
H      -0.885704600000000     -0.968921415000000      0.825537725000000
C       0.593599040000000      0.345783375000000      0.328987775000000
C       1.228676190000000      0.984936645000000     -0.744569235000000
H       1.273116720000000      1.020849585000000     -2.771168035000001
O      -0.191805000000000      0.137100075000000     -4.536451665000000
O      -0.931175470000000     -1.775991945000000     -3.825463055000000
N       0.959307630000000      0.670941075000000      1.648689005000000
C       2.341756460000000      1.973027805000000     -0.538483104999999
C       1.075595170000000     -0.234162075000001      2.662414555000000
H       1.062467990000000      1.486747185000000      1.831251655000001
H       2.868057260000000      2.083678485000000     -1.289870734999999
H       2.944272580000000      1.685724285000000      0.162448364999999
H       2.033819480000000      2.806790385000000     -0.224495805000000
C       1.318156420000000      0.345298065000000      4.021662494999999
O       0.980306220000000     -1.436760255000000      2.466896945000000
H       1.637337529999999      1.239239085000000      3.963706105000002
H       0.446715690000000      0.360827985000000      4.495541265000002
H       1.867989680000000     -0.226397115000000      4.536451665000000
