68
Lattice="4.202 0.0 0.0 0.0 20.956 0.0 -1.7111065150665221 0.0 9.116813615189075" Properties=species:S:1:pos:R:3:bb_indices:I:1 spacegroup="P 21/c" unit_cell=conventional occupancy="_JSON {\"0\": {\"C\": 1}, \"1\": {\"H\": 1}, \"2\": {\"C\": 1}, \"3\": {\"H\": 1}, \"4\": {\"C\": 1}, \"5\": {\"H\": 1}, \"6\": {\"C\": 1}, \"7\": {\"C\": 1}, \"8\": {\"C\": 1}, \"9\": {\"C\": 1}, \"10\": {\"C\": 1}, \"11\": {\"H\": 1}, \"12\": {\"C\": 1}, \"13\": {\"C\": 1}, \"14\": {\"C\": 1}, \"15\": {\"O\": 1}, \"16\": {\"I\": 1}}" pbc="T T T"
C       0.73589401     15.18471760      3.62849181     0
C       5.10144622     16.24928240     10.04672860     0
H       0.44705301     15.82597120      3.02040034     0
H       5.39028721     15.60802880     10.65482007     0
C       0.39730339     13.85191600      3.42427519     0
C       5.44003683     17.58208400     10.25094523     0
H      -0.11095589     13.60044400      2.68672497     0
H       5.94829611     17.83355600     10.98849545     0
C       0.82483694     12.91518280      4.32775142     0
C       5.01250329     18.51881720      9.34746900     0
H       0.58196543     12.02664840      4.20011603     0
H       5.25537480     19.40735160      9.47510439     0
C       1.61264039     13.24209640      5.43635595     0
C       4.22469984     18.19190360      8.23886446     0
C       1.95838955     14.61890560      5.63601417     0
C       3.87895067     16.81509440      8.03920624     0
C       2.74350069     15.01916520      6.74553039     0
C       3.09383953     16.41483480      6.92969003     0
C       3.72407959     19.14749720      7.30165602     0
C       2.11326064     12.28650280      6.37356439     0
C       2.98298560     18.75142880      6.24866405     0
C       2.85435463     12.68257120      7.42655637     0
H       2.67766367     19.38849120      5.64330762     0
H       3.15967656     12.04550880      8.03191279     0
C       2.65935107     17.39557560      6.04535910     0
C       3.17798915     14.03842440      7.62986131     0
C       1.82503959     17.01836760      4.87111351     0
C       4.01230063     14.41563240      8.80410691     0
C       1.48497402     15.57449920      4.70609918     0
C       4.35236621     15.85950080      8.96912123     0
O       1.44358094     17.85241640      4.06245214     0
O       4.39375929     13.58158360      9.61276827     0
I       4.12134519     21.18756380      7.56959918     0
I       1.71599504     10.24643620      6.10562125     0
C       1.75499948      4.70671760      5.48832179     1
C      -2.61055273      5.77128240     -0.92991498     1
H       2.04384047      5.34797120      6.09641326     1
H      -2.89939373      5.13002880     -1.53800645     1
C       2.09359009      3.37391600      5.69253842     1
C      -2.94914335      7.10408400     -1.13413161     1
H       2.60184938      3.12244400      6.43008864     1
H      -3.45740263      7.35555600     -1.87168183     1
C       1.66605655      2.43718280      4.78906219     1
C      -2.52160980      8.04081720     -0.23065539     1
H       1.90892806      1.54864840      4.91669758     1
H      -2.76448131      8.92935160     -0.35829078     1
C       0.87825310      2.76409640      3.68045765     1
C      -1.73380636      7.71390360      0.87794914     1
C       0.53250393      4.14090560      3.48079943     1
C      -1.38805719      6.33709440      1.07760736     1
C      -0.25260720      4.54116520      2.37128322     1
C      -0.60294605      5.93683480      2.18712358     1
C      -1.23318611      8.66949720      1.81515758     1
C       0.37763285      1.80850280      2.74324921     1
C      -0.49209211      8.27342880      2.86814956     1
C      -0.36346115      2.20457120      1.69025724     1
H      -0.18677018      8.91049120      3.47350598     1
H      -0.66878307      1.56750880      1.08490081     1
C      -0.16845758      6.91757560      3.07145450     1
C      -0.68709567      3.56042440      1.48695230     1
C       0.66585390      6.54036760      4.24570009     1
C      -1.52140715      3.93763240      0.31270671     1
C       1.00591947      5.09649920      4.41071442     1
C      -1.86147272      5.38150080      0.14769238     1
O       1.04731255      7.37441640      5.05436146     1
O      -1.90286580      3.10358360     -0.49595467     1
I      -1.63045171     10.70956380      1.54721443     1
I       0.77489845     -0.23156380      3.01119236     1
88
Lattice="9.3538 0.0 0.0 0.0 12.1757 0.0 -1.821253926633659 0.0 6.995405070095761" Properties=species:S:1:pos:R:3:bb_indices:I:1 spacegroup="C 2/c" unit_cell=conventional occupancy="_JSON {\"0\": {\"C\": 1.0}, \"1\": {\"N\": 1.0}, \"2\": {\"C\": 1.0}, \"3\": {\"C\": 1.0}, \"4\": {\"N\": 1.0}, \"5\": {\"O\": 1.0}, \"6\": {\"O\": 1.0}, \"7\": {\"H\": 1.0}, \"8\": {\"H\": 1.0}, \"9\": {\"H\": 1.0}, \"10\": {\"H\": 1.0}}" pbc="T T T"
C       5.96201364      0.05893039      5.74882389     0
N       4.95291771      0.18653172      4.79604972     0
C       4.76290314      1.49115798      4.43368773     0
C       5.66853091      2.29268431      5.25215013     0
N       6.37832476      1.32337683      6.07550930     0
O       3.96318904      1.88211971      3.59284004     0
O       6.35284311     -1.00619985      6.20212614     0
H       6.25418866      2.72735680      4.79185247     0
H       5.27847545      2.87346520      5.70125513     0
H       7.07405088      1.44890830      6.70859346     0
H       4.57117680     -0.46267660      4.35813736     0
C       1.57053243     12.11676961      1.24658118     1
N       2.57962837     11.98916828      2.19935535     1
C       2.76964293     10.68454202      2.56171734     1
C       1.86401516      9.88301569      1.74325494     1
N       1.15422131     10.85232317      0.91989577     1
O       3.56935703     10.29358029      3.40256503     1
O       1.17970296     13.18189985      0.79327893     1
H       1.27835741      9.44834320      2.20355260     1
H       2.25407062      9.30223480      1.29414994     1
H       0.45849519     10.72679170      0.28681161     1
H       2.96136927     12.63837660      2.63726771     1
C       1.28511364      6.14678039      5.74882389     2
N       0.27601771      6.27438172      4.79604972     2
C       0.08600314      7.57900798      4.43368773     2
C       0.99163091      8.38053431      5.25215013     2
N       1.70142476      7.41122683      6.07550930     2
O      -0.71371096      7.96996971      3.59284004     2
O       1.67594311      5.08165015      6.20212614     2
H       1.57728866      8.81520680      4.79185247     2
H       0.60157545      8.96131520      5.70125513     2
H       2.39715088      7.53675830      6.70859346     2
H      -0.10572320      5.62517340      4.35813736     2
C       6.24743243      6.02891961      1.24658118     3
N       7.25652837      5.90131828      2.19935535     3
C       7.44654293      4.59669202      2.56171734     3
C       6.54091516      3.79516569      1.74325494     3
N       5.83112131      4.76447317      0.91989577     3
O       8.24625703      4.20573029      3.40256503     3
O       5.85660296      7.09404985      0.79327893     3
H       5.95525741      3.36049320      2.20355260     3
H       6.93097062      3.21438480      1.29414994     3
H       5.13539519      4.63894170      0.28681161     3
H       7.63826927      6.55052660      2.63726771     3
C       0.65990547      0.05893039      4.74428372     4
N       1.66900140      0.18653172      5.69705789     4
C       1.85901597      1.49115798      6.05941987     4
C       0.95338820      2.29268431      5.24095748     4
N       0.24359435      1.32337683      4.41759830     4
O       2.65873007      1.88211971      6.90026756     4
O       0.26907600     -1.00619985      4.29098147     4
H       0.36773045      2.72735680      5.70125513     4
H       1.34344366      2.87346520      4.79185247     4
H      -0.45213177      1.44890830      3.78451414     4
H       2.05074231     -0.46267660      6.13497025     4
C       6.87264061     12.11676961      2.25112135     5
N       5.86354467     11.98916828      1.29834718     5
C       5.67353010     10.68454202      0.93598520     5
C       6.57915788      9.88301569      1.75444759     5
N       7.28895173     10.85232317      2.57780677     5
O       4.87381601     10.29358029      0.09513751     5
O       7.26347007     13.18189985      2.70442360     5
H       7.16481562      9.44834320      1.29414994     5
H       6.18910241      9.30223480      2.20355260     5
H       7.98467785     10.72679170      3.21089093     5
H       5.48180377     12.63837660      0.86043482     5
C       5.33680547      6.14678039      4.74428372     6
N       6.34590140      6.27438172      5.69705789     6
C       6.53591597      7.57900798      6.05941987     6
C       5.63028820      8.38053431      5.24095748     6
N       4.92049435      7.41122683      4.41759830     6
O       7.33563007      7.96996971      6.90026756     6
O       4.94597600      5.08165015      4.29098147     6
H       5.04463045      8.81520680      5.70125513     6
H       6.02034366      8.96131520      4.79185247     6
H       4.22476823      7.53675830      3.78451414     6
H       6.72764231      5.62517340      6.13497025     6
C       2.19574061      6.02891961      2.25112135     7
N       1.18664467      5.90131828      1.29834718     7
C       0.99663010      4.59669202      0.93598520     7
C       1.90225788      3.79516569      1.75444759     7
N       2.61205173      4.76447317      2.57780677     7
O       0.19691601      4.20573029      0.09513751     7
O       2.58657007      7.09404985      2.70442360     7
H       2.48791562      3.36049320      1.29414994     7
H       1.51220241      3.21438480      2.20355260     7
H       3.30777785      4.63894170      3.21089093     7
H       0.80490377      6.55052660      0.86043482     7
88
Lattice="9.507 0.0 0.0 0.0 9.122 0.0 -4.515819854680146 0.0 8.686280621766521" Properties=species:S:1:pos:R:3:bb_indices:I:1 spacegroup="P 21/c" unit_cell=conventional occupancy="_JSON {\"0\": {\"N\": 1.0}, \"1\": {\"C\": 1.0}, \"2\": {\"C\": 1.0}, \"3\": {\"C\": 1.0}, \"4\": {\"N\": 1.0}, \"5\": {\"C\": 1.0}, \"6\": {\"C\": 1.0}, \"7\": {\"C\": 1.0}, \"8\": {\"H\": 1.0}, \"9\": {\"H\": 1.0}, \"10\": {\"H\": 1.0}, \"11\": {\"H\": 1.0}, \"12\": {\"H\": 1.0}, \"13\": {\"H\": 1.0}, \"14\": {\"H\": 1.0}, \"15\": {\"H\": 1.0}, \"16\": {\"H\": 1.0}, \"17\": {\"H\": 1.0}, \"18\": {\"H\": 1.0}, \"19\": {\"H\": 1.0}, \"20\": {\"H\": 1.0}, \"21\": {\"H\": 1.0}}" pbc="T T T"
N       0.69746295      4.87434070      5.54801430     0
C       0.96503430      5.46499020      4.22413827     0
C       0.02013378      6.59429380      4.57506400     0
C      -0.54707699      5.64378140      5.61307454     0
H       0.60346011      4.04834360      5.55053332     0
H       1.86456277      5.65564000      4.03912049     0
H       0.60131986      4.88939200      3.56137505     0
H       0.47463994      7.30672200      5.01198392     0
H      -0.57707257      6.93272000      3.92619884     0
H      -0.75936779      5.99315400      6.47127906     0
H      -1.30055447      5.17217400      5.28125862     0
N       4.29371719      4.24765930      3.13826633     1
C       4.02614584      3.65700980      4.46214236     1
C       4.97104636      2.52770620      4.11121662     1
C       5.53825714      3.47821860      3.07320608     1
H       4.38772003      5.07365640      3.13574730     1
H       3.12661738      3.46636000      4.64716013     1
H       4.38986029      4.23260800      5.12490557     1
H       4.51654020      1.81527800      3.67429670     1
H       5.56825272      2.18928000      4.76008178     1
H       5.75054794      3.12884600      2.21500156     1
H       6.29173462      3.94982600      3.40502200     1
N       2.03580727      0.31334070      7.48140664     2
C       1.76823591      0.90399020      8.80528266     2
C       2.71313644      2.03329380      8.45435693     2
C       3.28034721      1.08278140      7.41634639     2
H       2.12981011     -0.51265640      7.47888762     2
H       0.86870745      1.09464000      8.99030044     2
H       2.13195035      0.32839200      9.46804588     2
H       2.25863027      2.74572200      8.01743701     2
H       3.31034279      2.37172000      9.10322209     2
H       3.49263801      1.43215400      6.55814187     2
H       4.03382469      0.61117400      7.74816231     2
N       2.95537288      8.80865930      1.20487399     3
C       3.22294423      8.21800980     -0.11900204     3
C       2.27804371      7.08870620      0.23192369     3
C       1.71083294      8.03921860      1.26993423     3
H       2.86137004      9.63465640      1.20739301     3
H       4.12247269      8.02736000     -0.30401982     3
H       2.85922978      8.79360800     -0.78176525     3
H       2.73254987      6.37627800      0.66884361     3
H       1.68083735      6.75028000     -0.41694147     3
H       1.49854214      7.68984600      2.12813875     3
H       0.95735546      8.51082600      0.93811831     3
N       0.47347072      1.77678316      5.23678486     4
C       0.87825896      1.36647560      3.88450469     4
C      -0.57386423      1.35005600      3.47016911     4
C      -0.88747552      1.31539240      4.95117995     4
H       0.85420742      1.35917800      5.85455314     4
H       1.45005724      1.99771800      3.48319853     4
H       1.29390498      0.51630520      3.85670860     4
H      -0.86157005      2.15917740      3.08362962     4
H      -0.87535529      0.63854000      2.92727657     4
H      -1.55771883      1.89737600      5.26388606     4
H      -1.07737765      0.42964620      5.27257234     4
N       4.51770943      7.34521684      3.44949576     5
C       4.11292118      7.75552440      4.80177593     5
C       5.56504438      7.77194400      5.21611151     5
C       5.87865566      7.80660760      3.73510067     5
H       4.13697273      7.76282200      2.83172748     5
H       3.54112291      7.12428200      5.20308209     5
H       3.69727516      8.60569480      4.82957203     5
H       5.85275019      6.96282260      5.60265100     5
H       5.86653544      8.48346000      5.75900405     5
H       6.54889898      7.22462400      3.42239456     5
H       6.06855780      8.69235380      3.41370828     5
N       2.25979950      6.33778316      7.79263607     6
C       1.85501125      5.92747560      9.14491624     6
C       3.30713444      5.91105600      9.55925182     6
C       3.62074574      5.87639240      8.07824098     6
H       1.87906280      5.92017800      7.17486779     6
H       1.28321297      6.55871800      9.54622240     6
H       1.43936523      5.07730520      9.17271233     6
H       3.59484026      6.72017740      9.94579131     6
H       3.60862550      5.19954000     10.10214436     6
H       4.29098905      6.45837600      7.76553488     6
H       3.81064787      4.99064620      7.75684860     6
N       2.73138064      2.78421684      0.89364455     7
C       3.13616888      3.19452440     -0.45863562     7
C       1.68404569      3.21094400     -0.87297120     7
C       1.37043441      3.24560760      0.60803964     7
H       3.11211735      3.20182200      1.51141283     7
H       3.70796716      2.56328200     -0.85994178     7
H       3.55181491      4.04469480     -0.48643171     7
H       1.39633987      2.40182260     -1.25951069     7
H       1.38255463      3.92246000     -1.41586374     7
H       0.70019110      2.66362400      0.92074575     7
H       1.18053228      4.13135380      0.92943203     7
104
Lattice="12.5693 0.0 0.0 0.0 4.8531 0.0 -2.749370812842705 0.0 17.045998821526673" Properties=species:S:1:pos:R:3:bb_indices:I:1 spacegroup="P 21/n" unit_cell=conventional occupancy="_JSON {\"0\": {\"C\": 1.0}, \"1\": {\"C\": 1.0}, \"2\": {\"C\": 1.0}, \"3\": {\"C\": 1.0}, \"4\": {\"C\": 1.0}, \"5\": {\"C\": 1.0}, \"6\": {\"N\": 1.0}, \"7\": {\"C\": 1.0}, \"8\": {\"O\": 1.0}, \"9\": {\"C\": 1.0}, \"10\": {\"C\": 1.0}, \"11\": {\"N\": 1.0}, \"12\": {\"O\": 1.0}, \"13\": {\"O\": 1.0}, \"14\": {\"N\": 1.0}, \"15\": {\"O\": 1.0}, \"16\": {\"O\": 1.0}, \"17\": {\"H\": 1.0}, \"18\": {\"H\": 1.0}, \"19\": {\"H\": 1.0}, \"20\": {\"H\": 1.0}, \"21\": {\"H\": 1.0}, \"22\": {\"H\": 1.0}, \"23\": {\"H\": 1.0}, \"24\": {\"H\": 1.0}, \"25\": {\"H\": 1.0}}" pbc="T T T"
C      10.64151626      2.55758370      2.99344785     0
C      11.27803092      1.95191682      1.90864049     0
C      12.28308212      1.03371030      2.12989755     0
C      12.69031630      0.71049384      3.42437070     0
C      12.05523915      1.34964711      4.49792771     0
C      11.03553291      2.27416266      4.27479558     0
N      12.42094774      1.02448941      5.81762894     0
C      12.53723528      1.92959256      6.83135449     0
O      12.44194632      3.13219074      6.63583688     0
C      12.77979653      1.35013242      8.19060243     0
C      13.80339657     -0.27759732      3.63045683     0
N      10.99108810      2.34987102      0.53388068     0
O      11.26983510      1.55833041     -0.36751173     0
O      10.53046464      3.47142243      0.34347688     0
N       9.45521233      3.41464116      2.82520384     0
O       9.46943670      4.50222087      3.38226709     0
O       8.51736752      2.96524410      2.18649027     0
H      12.52410809      0.20868330      6.00019159     0
H      12.73475682      0.67458090      1.39777190     0
H      10.57593550      2.66435190      4.99447765     0
H      13.09897764      0.45619140      8.13264604     0
H      11.90835580      1.33460250      8.66448120     0
H      13.32962979      1.92182760      8.70539160     0
H      14.32969737     -0.38824800      2.87906920     0
H      14.40591269      0.00970620      4.33138830     0
H      13.49545958     -1.11135990      3.94444413     0
C      -0.82158708      2.29551630     14.05255097     1
C      -1.45810173      2.90118318     15.13735833     1
C      -2.46315294      3.81938970     14.91610127     1
C      -2.87038711      4.14260616     13.62162812     1
C      -2.23530996      3.50345289     12.54807111     1
C      -1.21560372      2.57893734     12.77120324     1
N      -2.60101855      3.82861059     11.22836988     1
C      -2.71730609      2.92350744     10.21464433     1
O      -2.62201714      1.72090926     10.41016194     1
C      -2.95986734      3.50296758      8.85539639     1
C      -3.98346738      5.13069732     13.41554199     1
N      -1.17115892      2.50322898     16.51211814     1
O      -1.44990591      3.29476959     17.41351055     1
O      -0.71053545      1.38167757     16.70252195     1
N       0.36471686      1.43845884     14.22079498     1
O       0.35049249      0.35087913     13.66373174     1
O       1.30256166      1.88785590     14.85950855     1
H      -2.70417891      4.64441670     11.04580724     1
H      -2.91482764      4.17851910     15.64822692     1
H      -0.75600631      2.18874810     12.05152117     1
H      -3.27904845      4.39690860      8.91335278     1
H      -2.08842661      3.51849750      8.38151762     1
H      -3.50970060      2.93127240      8.34060722     1
H      -4.50976818      5.24134800     14.16692962     1
H      -4.58598350      4.84339380     12.71461052     1
H      -3.67553040      5.96445990     13.10155469     1
C       6.83774833      0.13103370      5.52955156     2
C       6.20123368     -0.47463318      6.61435892     2
C       5.19618247     -1.39283970      6.39310186     2
C       4.78894830     -1.71605616      5.09862871     2
C       5.42402544     -1.07690289      4.02507170     2
C       6.44373169     -0.15238734      4.24820383     2
N       5.05831685     -1.40206059      2.70537047     2
C       4.94202932     -0.49695744      1.69164492     2
O       5.03731827      0.70564074      1.88716253     2
C       4.69946806     -1.07641758      0.33239698     2
C       3.67586803     -2.70414732      4.89254258     2
N       6.48817649     -0.07667898      7.98911873     2
O       6.20942949     -0.86821959      8.89051115     2
O       6.94879996      1.04487243      8.17952253     2
N       8.02405226      0.98809116      5.69779557     2
O       8.00982790      2.07567087      5.14073232     2
O       8.96189707      0.53869410      6.33650914     2
H       4.95515650     -2.21786670      2.52280783     2
H       4.74450777     -1.75196910      7.12522751     2
H       6.90332909      0.23780190      3.52852176     2
H       4.38028696     -1.97035860      0.39035337     2
H       5.57090879     -1.09194750     -0.14148179     2
H       4.14963480     -0.50472240     -0.18239219     2
H       3.14956722     -2.81479800      5.64393021     2
H       3.07335191     -2.41684380      4.19161111     2
H       3.98380501     -3.53790990      4.57855528     2
C       2.98218086      4.72206630     11.51644726     3
C       3.61869551      5.32773318     10.43163990     3
C       4.62374672      6.24593970     10.65289696     3
C       5.03098089      6.56915616     11.94737011     3
C       4.39590374      5.93000289     13.02092712     3
C       3.37619750      5.00548734     12.79779500     3
N       4.76161233      6.25516059     14.34062835     3
C       4.87789987      5.35005744     15.35435390     3
O       4.78261092      4.14745926     15.15883629     3
C       5.12046112      5.92951758     16.71360184     3
C       6.14406116      7.55724732     12.15345624     3
N       3.33175270      4.92977898      9.05688009     3
O       3.61049970      5.72131959      8.15548768     3
O       2.87112923      3.80822757      8.86647629     3
N       1.79587693      3.86500884     11.34820326     3
O       1.81010129      2.77742913     11.90526650     3
O       0.85803212      4.31440590     10.70948968     3
H       4.86477269      7.07096670     14.52319100     3
H       5.07542142      6.60506910      9.92077131     3
H       2.91660010      4.61529810     13.51747707     3
H       5.43964223      6.82345860     16.65564545     3
H       4.24902039      5.94504750     17.18748061     3
H       5.67029438      5.35782240     17.22839101     3
H       6.67036196      7.66789800     11.40206861     3
H       6.74657728      7.26994380     12.85438771     3
H       5.83612418      8.39100990     12.46744354     3
