26
Properties=species:S:1:pos:R:3 pbc="F F F"
C       -0.82012384      -0.86215321      -1.17549208
N       -2.00642777      -1.71921068      -1.34373608
C       -0.18360919      -0.25648634      -2.26029944
C       -0.42610720      -0.57873217       0.10585566
O       -1.99220341      -2.80679039      -0.78667285
O       -2.94427258      -1.26981361      -1.98244966
C        0.82144202       0.66172018      -2.03904239
N       -0.47055200      -0.65444053      -3.63505925
H       -0.88570460      -0.96892141       0.82553773
C        0.59359904       0.34578338       0.32898777
C        1.22867619       0.98493664      -0.74456924
H        1.27311672       1.02084958      -2.77116804
O       -0.19180500       0.13710007      -4.53645167
O       -0.93117547      -1.77599194      -3.82546306
N        0.95930763       0.67094107       1.64868901
C        2.34175646       1.97302781      -0.53848310
C        1.07559517      -0.23416208       2.66241455
H        1.06246799       1.48674719       1.83125166
H        2.86805726       2.08367849      -1.28987073
H        2.94427258       1.68572429       0.16244836
H        2.03381948       2.80679039      -0.22449580
C        1.31815642       0.34529806       4.02166249
O        0.98030622      -1.43676026       2.46689694
H        1.63733753       1.23923908       3.96370611
H        0.44671569       0.36082799       4.49554127
H        1.86798968      -0.22639712       4.53645167
